
Gurobi 11.0.1 (win64) logging started Tue May 14 18:25:38 2024

Set parameter LogFile to value "output/solver_log27.txt"
Gurobi Optimizer version 11.0.1 build v11.0.1rc0 (win64 - Windows 11.0 (22631.2))

CPU model: 11th Gen Intel(R) Core(TM) i7-1165G7 @ 2.80GHz, instruction set [SSE2|AVX|AVX2|AVX512]
Thread count: 4 physical cores, 8 logical processors, using up to 8 threads

Optimize a model with 1094 rows, 237 columns and 20543 nonzeros
Model fingerprint: 0x998c7e79
Variable types: 88 continuous, 149 integer (149 binary)
Coefficient statistics:
  Matrix range     [4e-01, 1e+05]
  Objective range  [1e+00, 1e+02]
  Bounds range     [1e+00, 1e+00]
  RHS range        [1e-02, 1e+05]

User MIP start produced solution with objective 38085.5 (0.00s)
User MIP start produced solution with objective 39298.5 (0.01s)
User MIP start produced solution with objective 39298.5 (0.01s)
Loaded user MIP start with objective 39298.5

Presolve removed 99 rows and 101 columns
Presolve time: 0.02s
Presolved: 995 rows, 136 columns, 19667 nonzeros
Variable types: 81 continuous, 55 integer (54 binary)

Root relaxation: objective 4.069055e+04, 269 iterations, 0.01 seconds (0.03 work units)

    Nodes    |    Current Node    |     Objective Bounds      |     Work
 Expl Unexpl |  Obj  Depth IntInf | Incumbent    BestBd   Gap | It/Node Time

     0     0 40690.5467    0    6 39298.4565 40690.5467  3.54%     -    0s
     0     0 39766.9550    0    6 39298.4565 39766.9550  1.19%     -    0s
     0     0          -    0      39298.4565 39302.1077  0.01%     -    0s

Cutting planes:
  Cover: 1
  MIR: 1
  RLT: 3

Explored 1 nodes (540 simplex iterations) in 0.14 seconds (0.20 work units)
Thread count was 8 (of 8 available processors)

Solution count 3: 39298.5 39298.5 38085.5 

Optimal solution found (tolerance 1.00e-04)
Best objective 3.929845645695e+04, best bound 3.930210765441e+04, gap 0.0093%
